Route #1: 0 27 1 32 11 38 39 15 44 37 12 0
Route #2: 0 5 17 42 19 40 41 13 18 0
Route #3: 0 6 14 25 24 43 23 7 26 8 0
Route #4: 0 4 33 10 30 34 21 29 16 9 0
Route #5: 0 22 31 28 3 36 35 20 2 0
Cost 577:
